sat
(model 
  (define-fun q1 () Quantifier
    one)
  (define-fun arg1_2 () Binding
    bind_x2)
  (define-fun arg2_2 () Binding
    bind_sink)
  (define-fun r2 () Rels
    labelOf)
  (define-fun arg1_1 () Binding
    bind_x1)
  (define-fun op1 () Ops
    opand)
  (define-fun n1 () IfNeg
    yes)
  (define-fun n2 () IfNeg
    no)
  (define-fun q2 () Quantifier
    one)
  (define-fun arg2_1 () Binding
    bind_x2)
  (define-fun r1 () Rels
    sameLabel)
)
